10	5
0	5	5	3	2	1	4
1	1	6
2	2	10	8
3	2	10	9
4	1	11
5	2	7	9
6	1	10
7	1	8
8	1	11
9	1	11
10	1	11
11	0
0	0	0	0	0	0	0
1	3	2	5	1	5	3
2	3	1	1	1	3	2
3	6	1	2	1	1	5
4	8	4	3	3	4	4
5	10	4	1	1	3	5
6	5	1	5	3	1	4
7	6	4	3	2	3	5
8	3	2	5	5	1	5
9	1	3	5	3	1	3
10	3	2	1	5	1	2
11	0	0	0	0	0	0
6	8	7	7	9
